; Automatically generated by map2smt

(set-logic HORN)

(declare-datatypes ((listOfInt 0) )
(((conslistOfInt (headlistOfInt Int) (taillistOfInt listOfInt)) (nillistOfInt))))



(declare-fun leq (Int Int Bool) Bool)
(declare-fun count (Int listOfInt Int) Bool)
(declare-fun append (listOfInt listOfInt listOfInt) Bool)
(declare-fun ff () Bool)

(assert
  (forall ( (A Int) (B Int) )
    (=>
      (= B 0)
      (count A nillistOfInt B)
    )
  )
)
(assert
  (forall ( (A Int) (B listOfInt) (C Int) (D Int) )
    (=>
      (and
        (= C (+ 1 D))
        (count A B D)
      )
      (count A (conslistOfInt A B) C)
    )
  )
)
(assert
  (forall ( (A Int) (B Int) (C listOfInt) (D Int) )
    (=>
      (and
        (>= (- B A) 1)
        (count A C D)
      )
      (count A (conslistOfInt B C) D)
    )
  )
)
(assert
  (forall ( (A Int) (B Int) (C listOfInt) (D Int) )
    (=>
      (and
        (<= (- B A) (- 1))
        (count A C D)
      )
      (count A (conslistOfInt B C) D)
    )
  )
)
(assert
  (forall ( (A listOfInt) )
    (append nillistOfInt A A)
  )
)
(assert
  (forall ( (A Int) (B listOfInt) (C listOfInt) (D listOfInt) )
    (=>
      (append B C D)
      (append (conslistOfInt A B) C (conslistOfInt A D))
    )
  )
)
(assert
  (forall ( (A Int) (B Int) (C listOfInt) (D Int) (E listOfInt) )
    (=>
      (and
        (<= (- A B) 0)
        (append C (conslistOfInt D nillistOfInt) E)
        (count D E A)
        (count D C B)
      )
      ff
    )
  )
)
(assert
  (forall ( (A Int) (B Int) (C listOfInt) (D Int) (E listOfInt) )
    (=>
      (and
        (>= (- A B) 2)
        (append C (conslistOfInt D nillistOfInt) E)
        (count D E A)
        (count D C B)
      )
      ff
    )
  )
)

(assert (not ff))
(check-sat)
